NAME : portgen-40-202
COMMENT : portgen N=40, seed=202
TYPE : TSP
DIMENSION : 40
EDGE_WEIGHT_TYPE : EUC_2D
NODE_COORD_SECTION
1 1525 1740
2 1907 2512
3 1378 2678
4 2045 1276
5 1301 638
6 1173 1711
7 1986 3130
8 1683 2618
9 2910 2920
10 2227 2857
11 783 1943
12 1750 1521
13 507 2652
14 301 2007
15 290 3026
16 1388 673
17 1570 836
18 760 2238
19 1971 2548
20 651 1740
21 1197 2200
22 1731 1677
23 3075 2366
24 1884 2628
25 2707 2035
26 1803 821
27 1293 71
28 3076 851
29 169 1070
30 1751 2302
31 706 2659
32 625 2724
33 2604 2136
34 3142 309
35 55 2479
36 734 282
37 213 192
38 1054 3125
39 649 1679
40 1608 2819
